p cnf 1301
-24 -402
-25 -405
-26 -408
-27 -411
-28 -414
-29 -417
-30 -420
-31 -423
-32 -426
-33 -429
-34 -432
-35 -435
-36 -438
-37 -441
-38 -444
-39 -447
-40 -450
-41 -453
-42 -456
-43 -459
-44 -462
-45 -465
-46 -468
-47 469
-48 470
-49 471
-50 472
-51 473
-52 -25
-52 -26
25 26 52
-53 -27
-53 -28
27 28 53
-54 -29
-54 -30
29 30 54
-55 -31
-55 -32
31 32 55
-56 -33
-56 -34
33 34 56
-57 -35
-57 -36
35 36 57
-58 -37
-58 -38
37 38 58
-59 -39
-59 -40
39 40 59
-60 -41
-60 -42
41 42 60
-61 -43
-61 -44
43 44 61
-62 -45
-62 -46
45 46 62
-63 -47
-63 -48
47 48 63
-64 -49
-64 -50
49 50 64
-65 52
-65 53
-52 -53 65
-66 54
-66 55
-54 -55 66
-67 56
-67 57
-56 -57 67
-68 58
-68 59
-58 -59 68
-69 60
-69 61
-60 -61 69
-70 62
-70 63
-62 -63 70
-71 -51
-71 64
51 -64 71
-72 65
-72 66
-65 -66 72
-73 67
-73 68
-67 -68 73
-74 69
-74 70
-69 -70 74
-75 72
-75 73
-72 -73 75
-76 71
-76 74
-71 -74 76
-77 75
-77 76
-75 -76 77
-78 -24
-78 25
24 -25 78
-79 24
-79 -25
-24 25 79
-80 -78
-80 -79
78 79 80
-81 24
-81 25
-24 -25 81
-82 -24
-82 -80
24 80 82
-83 24
-83 80
-24 -80 83
-84 -82
-84 -83
82 83 84
-85 24
-85 -80
-24 80 85
-86 -81
-86 -85
81 85 86
-87 -25
-87 26
25 -26 87
-88 25
-88 -26
-25 26 88
-89 -87
-89 -88
87 88 89
-90 25
-90 26
-25 -26 90
-91 86
-91 -89
-86 89 91
-92 -86
-92 89
86 -89 92
-93 -91
-93 -92
91 92 93
-94 -86
-94 -89
86 89 94
-95 -90
-95 -94
90 94 95
-96 -26
-96 27
26 -27 96
-97 26
-97 -27
-26 27 97
-98 -96
-98 -97
96 97 98
-99 26
-99 27
-26 -27 99
-100 95
-100 -98
-95 98 100
-101 -95
-101 98
95 -98 101
-102 -100
-102 -101
100 101 102
-103 -95
-103 -98
95 98 103
-104 -99
-104 -103
99 103 104
-105 -27
-105 28
27 -28 105
-106 27
-106 -28
-27 28 106
-107 -105
-107 -106
105 106 107
-108 27
-108 28
-27 -28 108
-109 104
-109 -107
-104 107 109
-110 -104
-110 107
104 -107 110
-111 -109
-111 -110
109 110 111
-112 -104
-112 -107
104 107 112
-113 -108
-113 -112
108 112 113
-114 -28
-114 29
28 -29 114
-115 28
-115 -29
-28 29 115
-116 -114
-116 -115
114 115 116
-117 28
-117 29
-28 -29 117
-118 113
-118 -116
-113 116 118
-119 -113
-119 116
113 -116 119
-120 -118
-120 -119
118 119 120
-121 -113
-121 -116
113 116 121
-122 -117
-122 -121
117 121 122
-123 -29
-123 30
29 -30 123
-124 29
-124 -30
-29 30 124
-125 -123
-125 -124
123 124 125
-126 29
-126 30
-29 -30 126
-127 122
-127 -125
-122 125 127
-128 -122
-128 125
122 -125 128
-129 -127
-129 -128
127 128 129
-130 -122
-130 -125
122 125 130
-131 -126
-131 -130
126 130 131
-132 -30
-132 31
30 -31 132
-133 30
-133 -31
-30 31 133
-134 -132
-134 -133
132 133 134
-135 30
-135 31
-30 -31 135
-136 131
-136 -134
-131 134 136
-137 -131
-137 134
131 -134 137
-138 -136
-138 -137
136 137 138
-139 -131
-139 -134
131 134 139
-140 -135
-140 -139
135 139 140
-141 -31
-141 32
31 -32 141
-142 31
-142 -32
-31 32 142
-143 -141
-143 -142
141 142 143
-144 31
-144 32
-31 -32 144
-145 140
-145 -143
-140 143 145
-146 -140
-146 143
140 -143 146
-147 -145
-147 -146
145 146 147
-148 -140
-148 -143
140 143 148
-149 -144
-149 -148
144 148 149
-150 -32
-150 33
32 -33 150
-151 32
-151 -33
-32 33 151
-152 -150
-152 -151
150 151 152
-153 32
-153 33
-32 -33 153
-154 149
-154 -152
-149 152 154
-155 -149
-155 152
149 -152 155
-156 -154
-156 -155
154 155 156
-157 -149
-157 -152
149 152 157
-158 -153
-158 -157
153 157 158
-159 -33
-159 34
33 -34 159
-160 33
-160 -34
-33 34 160
-161 -159
-161 -160
159 160 161
-162 33
-162 34
-33 -34 162
-163 158
-163 -161
-158 161 163
-164 -158
-164 161
158 -161 164
-165 -163
-165 -164
163 164 165
-166 -158
-166 -161
158 161 166
-167 -162
-167 -166
162 166 167
-168 -34
-168 35
34 -35 168
-169 34
-169 -35
-34 35 169
-170 -168
-170 -169
168 169 170
-171 34
-171 35
-34 -35 171
-172 167
-172 -170
-167 170 172
-173 -167
-173 170
167 -170 173
-174 -172
-174 -173
172 173 174
-175 -167
-175 -170
167 170 175
-176 -171
-176 -175
171 175 176
-177 -35
-177 36
35 -36 177
-178 35
-178 -36
-35 36 178
-179 -177
-179 -178
177 178 179
-180 35
-180 36
-35 -36 180
-181 176
-181 -179
-176 179 181
-182 -176
-182 179
176 -179 182
-183 -181
-183 -182
181 182 183
-184 -176
-184 -179
176 179 184
-185 -180
-185 -184
180 184 185
-186 -36
-186 37
36 -37 186
-187 36
-187 -37
-36 37 187
-188 -186
-188 -187
186 187 188
-189 36
-189 37
-36 -37 189
-190 185
-190 -188
-185 188 190
-191 -185
-191 188
185 -188 191
-192 -190
-192 -191
190 191 192
-193 -185
-193 -188
185 188 193
-194 -189
-194 -193
189 193 194
-195 -37
-195 38
37 -38 195
-196 37
-196 -38
-37 38 196
-197 -195
-197 -196
195 196 197
-198 37
-198 38
-37 -38 198
-199 194
-199 -197
-194 197 199
-200 -194
-200 197
194 -197 200
-201 -199
-201 -200
199 200 201
-202 -194
-202 -197
194 197 202
-203 -198
-203 -202
198 202 203
-204 -38
-204 39
38 -39 204
-205 38
-205 -39
-38 39 205
-206 -204
-206 -205
204 205 206
-207 38
-207 39
-38 -39 207
-208 203
-208 -206
-203 206 208
-209 -203
-209 206
203 -206 209
-210 -208
-210 -209
208 209 210
-211 -203
-211 -206
203 206 211
-212 -207
-212 -211
207 211 212
-213 -39
-213 40
39 -40 213
-214 39
-214 -40
-39 40 214
-215 -213
-215 -214
213 214 215
-216 39
-216 40
-39 -40 216
-217 212
-217 -215
-212 215 217
-218 -212
-218 215
212 -215 218
-219 -217
-219 -218
217 218 219
-220 -212
-220 -215
212 215 220
-221 -216
-221 -220
216 220 221
-222 -40
-222 41
40 -41 222
-223 40
-223 -41
-40 41 223
-224 -222
-224 -223
222 223 224
-225 40
-225 41
-40 -41 225
-226 221
-226 -224
-221 224 226
-227 -221
-227 224
221 -224 227
-228 -226
-228 -227
226 227 228
-229 -221
-229 -224
221 224 229
-230 -225
-230 -229
225 229 230
-231 -41
-231 42
41 -42 231
-232 41
-232 -42
-41 42 232
-233 -231
-233 -232
231 232 233
-234 41
-234 42
-41 -42 234
-235 230
-235 -233
-230 233 235
-236 -230
-236 233
230 -233 236
-237 -235
-237 -236
235 236 237
-238 -230
-238 -233
230 233 238
-239 -234
-239 -238
234 238 239
-240 -42
-240 43
42 -43 240
-241 42
-241 -43
-42 43 241
-242 -240
-242 -241
240 241 242
-243 42
-243 43
-42 -43 243
-244 239
-244 -242
-239 242 244
-245 -239
-245 242
239 -242 245
-246 -244
-246 -245
244 245 246
-247 -239
-247 -242
239 242 247
-248 -243
-248 -247
243 247 248
-249 -43
-249 44
43 -44 249
-250 43
-250 -44
-43 44 250
-251 -249
-251 -250
249 250 251
-252 43
-252 44
-43 -44 252
-253 248
-253 -251
-248 251 253
-254 -248
-254 251
248 -251 254
-255 -253
-255 -254
253 254 255
-256 -248
-256 -251
248 251 256
-257 -252
-257 -256
252 256 257
-258 -44
-258 45
44 -45 258
-259 44
-259 -45
-44 45 259
-260 -258
-260 -259
258 259 260
-261 44
-261 45
-44 -45 261
-262 257
-262 -260
-257 260 262
-263 -257
-263 260
257 -260 263
-264 -262
-264 -263
262 263 264
-265 -257
-265 -260
257 260 265
-266 -261
-266 -265
261 265 266
-267 -45
-267 46
45 -46 267
-268 45
-268 -46
-45 46 268
-269 -267
-269 -268
267 268 269
-270 45
-270 46
-45 -46 270
-271 266
-271 -269
-266 269 271
-272 -266
-272 269
266 -269 272
-273 -271
-273 -272
271 272 273
-274 -266
-274 -269
266 269 274
-275 -270
-275 -274
270 274 275
-276 -46
-276 47
46 -47 276
-277 46
-277 -47
-46 47 277
-278 -276
-278 -277
276 277 278
-279 46
-279 47
-46 -47 279
-280 275
-280 -278
-275 278 280
-281 -275
-281 278
275 -278 281
-282 -280
-282 -281
280 281 282
-283 -275
-283 -278
275 278 283
-284 -279
-284 -283
279 283 284
-285 -47
-285 48
47 -48 285
-286 47
-286 -48
-47 48 286
-287 -285
-287 -286
285 286 287
-288 47
-288 48
-47 -48 288
-289 284
-289 -287
-284 287 289
-290 -284
-290 287
284 -287 290
-291 -289
-291 -290
289 290 291
-292 -284
-292 -287
284 287 292
-293 -288
-293 -292
288 292 293
-294 -48
-294 49
48 -49 294
-295 48
-295 -49
-48 49 295
-296 -294
-296 -295
294 295 296
-297 48
-297 49
-48 -49 297
-298 293
-298 -296
-293 296 298
-299 -293
-299 296
293 -296 299
-300 -298
-300 -299
298 299 300
-301 -293
-301 -296
293 296 301
-302 -297
-302 -301
297 301 302
-303 -49
-303 50
49 -50 303
-304 49
-304 -50
-49 50 304
-305 -303
-305 -304
303 304 305
-306 49
-306 50
-49 -50 306
-307 302
-307 -305
-302 305 307
-308 -302
-308 305
302 -305 308
-309 -307
-309 -308
307 308 309
-310 -302
-310 -305
302 305 310
-311 -306
-311 -310
306 310 311
-312 -50
-312 51
50 -51 312
-313 50
-313 -51
-50 51 313
-314 -312
-314 -313
312 313 314
-315 50
-315 51
-50 -51 315
-316 311
-316 -314
-311 314 316
-317 -311
-317 314
311 -314 317
-318 -316
-318 -317
316 317 318
-319 -311
-319 -314
311 314 319
-320 -315
-320 -319
315 319 320
-321 24
-321 -84
-24 84 321
-322 -24
-322 26
24 -26 322
-323 -321
-323 -322
321 322 323
-324 24
-324 -93
-24 93 324
-325 -24
-325 27
24 -27 325
-326 -324
-326 -325
324 325 326
-327 24
-327 -102
-24 102 327
-328 -24
-328 28
24 -28 328
-329 -327
-329 -328
327 328 329
-330 24
-330 -111
-24 111 330
-331 -24
-331 29
24 -29 331
-332 -330
-332 -331
330 331 332
-333 24
-333 -120
-24 120 333
-334 -24
-334 30
24 -30 334
-335 -333
-335 -334
333 334 335
-336 24
-336 -129
-24 129 336
-337 -24
-337 31
24 -31 337
-338 -336
-338 -337
336 337 338
-339 24
-339 -138
-24 138 339
-340 -24
-340 32
24 -32 340
-341 -339
-341 -340
339 340 341
-342 24
-342 -147
-24 147 342
-343 -24
-343 33
24 -33 343
-344 -342
-344 -343
342 343 344
-345 24
-345 -156
-24 156 345
-346 -24
-346 34
24 -34 346
-347 -345
-347 -346
345 346 347
-348 24
-348 -165
-24 165 348
-349 -24
-349 35
24 -35 349
-350 -348
-350 -349
348 349 350
-351 24
-351 -174
-24 174 351
-352 -24
-352 36
24 -36 352
-353 -351
-353 -352
351 352 353
-354 24
-354 -183
-24 183 354
-355 -24
-355 37
24 -37 355
-356 -354
-356 -355
354 355 356
-357 24
-357 -192
-24 192 357
-358 -24
-358 38
24 -38 358
-359 -357
-359 -358
357 358 359
-360 24
-360 -201
-24 201 360
-361 -24
-361 39
24 -39 361
-362 -360
-362 -361
360 361 362
-363 24
-363 -210
-24 210 363
-364 -24
-364 40
24 -40 364
-365 -363
-365 -364
363 364 365
-366 24
-366 -219
-24 219 366
-367 -24
-367 41
24 -41 367
-368 -366
-368 -367
366 367 368
-369 24
-369 -228
-24 228 369
-370 -24
-370 42
24 -42 370
-371 -369
-371 -370
369 370 371
-372 24
-372 -237
-24 237 372
-373 -24
-373 43
24 -43 373
-374 -372
-374 -373
372 373 374
-375 24
-375 -246
-24 246 375
-376 -24
-376 44
24 -44 376
-377 -375
-377 -376
375 376 377
-378 24
-378 -255
-24 255 378
-379 -24
-379 45
24 -45 379
-380 -378
-380 -379
378 379 380
-381 24
-381 -264
-24 264 381
-382 -24
-382 46
24 -46 382
-383 -381
-383 -382
381 382 383
-384 24
-384 -273
-24 273 384
-385 -24
-385 47
24 -47 385
-386 -384
-386 -385
384 385 386
-387 24
-387 -282
-24 282 387
-388 -24
-388 48
24 -48 388
-389 -387
-389 -388
387 388 389
-390 24
-390 -291
-24 291 390
-391 -24
-391 49
24 -49 391
-392 -390
-392 -391
390 391 392
-393 24
-393 -300
-24 300 393
-394 -24
-394 50
24 -50 394
-395 -393
-395 -394
393 394 395
-396 24
-396 -309
-24 309 396
-397 -24
-397 51
24 -51 397
-398 -396
-398 -397
396 397 398
-399 24
-399 -318
-24 318 399
-400 1
-400 77
-1 -77 400
-401 -77
-401 78
77 -78 401
-402 -400
-402 -401
400 401 402
-403 2
-403 77
-2 -77 403
-404 -77
-404 -323
77 323 404
-405 -403
-405 -404
403 404 405
-406 3
-406 77
-3 -77 406
-407 -77
-407 -326
77 326 407
-408 -406
-408 -407
406 407 408
-409 4
-409 77
-4 -77 409
-410 -77
-410 -329
77 329 410
-411 -409
-411 -410
409 410 411
-412 5
-412 77
-5 -77 412
-413 -77
-413 -332
77 332 413
-414 -412
-414 -413
412 413 414
-415 6
-415 77
-6 -77 415
-416 -77
-416 -335
77 335 416
-417 -415
-417 -416
415 416 417
-418 7
-418 77
-7 -77 418
-419 -77
-419 -338
77 338 419
-420 -418
-420 -419
418 419 420
-421 8
-421 77
-8 -77 421
-422 -77
-422 -341
77 341 422
-423 -421
-423 -422
421 422 423
-424 9
-424 77
-9 -77 424
-425 -77
-425 -344
77 344 425
-426 -424
-426 -425
424 425 426
-427 10
-427 77
-10 -77 427
-428 -77
-428 -347
77 347 428
-429 -427
-429 -428
427 428 429
-430 11
-430 77
-11 -77 430
-431 -77
-431 -350
77 350 431
-432 -430
-432 -431
430 431 432
-433 12
-433 77
-12 -77 433
-434 -77
-434 -353
77 353 434
-435 -433
-435 -434
433 434 435
-436 13
-436 77
-13 -77 436
-437 -77
-437 -356
77 356 437
-438 -436
-438 -437
436 437 438
-439 14
-439 77
-14 -77 439
-440 -77
-440 -359
77 359 440
-441 -439
-441 -440
439 440 441
-442 15
-442 77
-15 -77 442
-443 -77
-443 -362
77 362 443
-444 -442
-444 -443
442 443 444
-445 16
-445 77
-16 -77 445
-446 -77
-446 -365
77 365 446
-447 -445
-447 -446
445 446 447
-448 17
-448 77
-17 -77 448
-449 -77
-449 -368
77 368 449
-450 -448
-450 -449
448 449 450
-451 18
-451 77
-18 -77 451
-452 -77
-452 -371
77 371 452
-453 -451
-453 -452
451 452 453
-454 19
-454 77
-19 -77 454
-455 -77
-455 -374
77 374 455
-456 -454
-456 -455
454 455 456
-457 20
-457 77
-20 -77 457
-458 -77
-458 -377
77 377 458
-459 -457
-459 -458
457 458 459
-460 21
-460 77
-21 -77 460
-461 -77
-461 -380
77 380 461
-462 -460
-462 -461
460 461 462
-463 22
-463 77
-22 -77 463
-464 -77
-464 -383
77 383 464
-465 -463
-465 -464
463 464 465
-466 23
-466 77
-23 -77 466
-467 -77
-467 -386
77 386 467
-468 -466
-468 -467
466 467 468
-469 -77
-469 -389
77 389 469
-470 -77
-470 -392
77 392 470
-471 -77
-471 -395
77 395 471
-472 -77
-472 -398
77 398 472
-473 -77
-473 399
77 -399 473
-474 -51
-474 320
51 -320 474
-475 24
-475 -474
-24 474 475
475
